; benchmark generated from python API
(set-info :status unknown)
(declare-fun rdi () (_ BitVec 64))
(declare-fun rsi () (_ BitVec 64))
(declare-fun return () (_ BitVec 32))
(assert
 (let ((?x6 ((_ extract 31 0) rdi)))
 (let ((?x21 (bvmul (_ bv4294967295 32) ?x6)))
 (let ((?x8 ((_ extract 31 0) rsi)))
 (let ((?x22 (bvadd ?x8 ?x21)))
 (let (($x27 (and (distinct return ?x22) true)))
 (let ((?x16 (bvmul (_ bv4294967295 32) ?x8)))
 (let ((?x17 (bvadd ?x6 ?x16)))
 (let (($x42 (and (distinct return ?x17) true)))
 (let (($x41 (and $x42 $x27)))
 (let (($x35 (= return ?x22)))
 (let (($x26 (= return ?x17)))
 (let (($x33 (and $x26 $x35)))
 (let (($x40 (or $x33 $x41)))
 (not $x40)))))))))))))))
(check-sat)
